90
1210
5
39
53
97
41
12
0 4
0 8
0 9
0 10
0 12
0 15
0 25
0 27
0 28
0 31
0 42
0 46
0 48
0 51
0 53
0 55
0 57
0 59
0 71
0 74
0 75
0 77
0 84
0 86
0 88
1 2
1 6
1 7
1 19
1 25
1 26
1 29
1 33
1 34
1 35
1 37
1 38
1 43
1 44
1 45
1 48
1 54
1 55
1 60
1 62
1 71
1 73
1 77
1 82
1 83
2 5
2 6
2 11
2 12
2 17
2 23
2 26
2 27
2 33
2 34
2 36
2 66
2 70
2 72
2 82
2 83
2 87
3 4
3 24
3 26
3 27
3 28
3 32
3 36
3 38
3 42
3 43
3 44
3 50
3 53
3 54
3 55
3 59
3 61
3 62
3 63
3 64
3 66
3 68
3 69
3 74
3 78
3 79
4 5
4 8
4 11
4 12
4 16
4 17
4 23
4 27
4 28
4 32
4 35
4 36
4 38
4 40
4 41
4 47
4 50
4 52
4 57
4 59
4 60
4 61
4 63
4 64
4 68
4 73
4 75
4 77
4 80
4 82
4 86
4 89
5 12
5 14
5 16
5 19
5 23
5 24
5 28
5 29
5 30
5 35
5 40
5 44
5 45
5 49
5 54
5 60
5 68
5 69
5 80
5 81
5 85
6 7
6 9
6 10
6 14
6 19
6 20
6 36
6 37
6 39
6 43
6 47
6 52
6 61
6 64
6 66
6 69
6 81
6 85
7 12
7 18
7 21
7 28
7 32
7 33
7 36
7 40
7 45
7 49
7 51
7 54
7 56
7 57
7 64
7 65
7 66
7 67
7 72
7 75
7 81
7 87
7 88
8 9
8 12
8 14
8 16
8 19
8 21
8 24
8 29
8 30
8 37
8 42
8 46
8 47
8 51
8 54
8 57
8 58
8 60
8 62
8 66
8 68
8 71
8 77
8 83
8 84
8 87
8 88
8 89
9 13
9 16
9 21
9 22
9 24
9 25
9 27
9 32
9 33
9 37
9 42
9 45
9 47
9 49
9 50
9 53
9 59
9 60
9 63
9 65
9 71
9 72
9 83
9 84
10 13
10 17
10 19
10 25
10 27
10 32
10 37
10 39
10 42
10 45
10 50
10 52
10 54
10 56
10 62
10 64
10 67
10 72
10 74
10 75
10 77
10 80
10 83
10 88
11 15
11 16
11 20
11 21
11 24
11 34
11 36
11 40
11 42
11 44
11 45
11 51
11 63
11 65
11 67
11 69
11 74
11 81
11 85
11 86
12 13
12 14
12 15
12 16
12 17
12 20
12 22
12 24
12 28
12 30
12 32
12 34
12 35
12 43
12 48
12 53
12 55
12 56
12 68
12 74
12 78
12 83
12 84
12 85
13 20
13 21
13 30
13 33
13 34
13 40
13 54
13 57
13 58
13 63
13 66
13 67
13 70
13 72
13 75
13 76
13 77
13 78
13 79
13 82
13 83
13 85
14 19
14 20
14 21
14 23
14 25
14 26
14 29
14 30
14 32
14 34
14 38
14 40
14 44
14 48
14 50
14 55
14 61
14 62
14 64
14 66
14 67
14 69
14 71
14 72
14 79
14 82
14 88
15 22
15 24
15 27
15 30
15 31
15 33
15 34
15 42
15 44
15 50
15 52
15 53
15 56
15 62
15 65
15 66
15 68
15 69
15 77
15 79
15 81
15 82
15 83
16 24
16 26
16 27
16 30
16 31
16 33
16 45
16 46
16 51
16 57
16 61
16 63
16 69
16 71
16 73
16 76
16 80
16 82
16 83
16 85
16 86
16 88
16 89
17 21
17 22
17 26
17 32
17 36
17 38
17 47
17 54
17 55
17 56
17 61
17 62
17 64
17 68
17 78
17 79
17 80
17 88
18 26
18 30
18 31
18 32
18 44
18 47
18 49
18 53
18 55
18 59
18 64
18 65
18 67
18 70
18 71
18 73
18 75
18 76
18 77
18 79
18 81
18 87
18 88
19 25
19 26
19 29
19 30
19 31
19 38
19 39
19 44
19 45
19 53
19 61
19 62
19 66
19 70
19 73
19 76
19 80
19 83
19 84
19 86
20 22
20 24
20 28
20 30
20 41
20 42
20 43
20 46
20 47
20 51
20 52
20 53
20 56
20 57
20 58
20 59
20 60
20 62
20 67
20 69
20 72
20 77
20 79
20 81
20 82
20 85
20 89
21 25
21 26
21 28
21 33
21 35
21 36
21 43
21 46
21 50
21 53
21 54
21 56
21 57
21 60
21 61
21 64
21 67
21 72
21 73
21 74
21 76
21 81
21 82
21 83
21 85
21 88
21 89
22 24
22 29
22 32
22 36
22 45
22 46
22 50
22 57
22 59
22 63
22 66
22 75
22 86
22 87
23 24
23 28
23 29
23 38
23 39
23 42
23 43
23 44
23 45
23 47
23 50
23 54
23 59
23 60
23 61
23 62
23 67
23 70
23 71
23 72
23 78
23 82
24 27
24 38
24 43
24 44
24 48
24 52
24 57
24 60
24 63
24 65
24 68
24 71
24 76
24 77
24 78
24 89
25 28
25 30
25 34
25 36
25 42
25 43
25 44
25 45
25 46
25 47
25 51
25 54
25 59
25 60
25 61
25 64
25 65
25 69
25 70
25 74
25 80
25 81
25 82
26 29
26 33
26 38
26 41
26 48
26 49
26 51
26 54
26 55
26 59
26 67
26 74
26 76
26 78
26 79
26 87
26 88
27 32
27 34
27 36
27 37
27 41
27 43
27 44
27 46
27 49
27 51
27 52
27 56
27 57
27 59
27 64
27 67
27 68
27 75
27 77
27 78
27 81
27 82
27 86
27 87
27 88
27 89
28 29
28 35
28 45
28 47
28 50
28 52
28 53
28 60
28 61
28 65
28 69
28 77
28 79
28 83
28 89
29 35
29 40
29 41
29 45
29 47
29 48
29 50
29 51
29 54
29 59
29 60
29 63
29 65
29 68
29 75
29 79
29 80
29 84
29 85
30 34
30 35
30 47
30 49
30 54
30 56
30 58
30 59
30 61
30 65
30 66
30 68
30 69
30 74
30 81
30 82
30 89
31 34
31 38
31 40
31 42
31 43
31 46
31 48
31 56
31 57
31 62
31 63
31 67
31 68
31 74
31 75
31 78
31 82
31 85
31 86
31 87
31 88
32 37
32 38
32 41
32 45
32 51
32 53
32 54
32 56
32 58
32 65
32 68
32 70
32 71
32 74
32 75
32 76
32 79
32 80
32 81
32 83
33 34
33 37
33 44
33 46
33 48
33 52
33 54
33 57
33 59
33 63
33 66
33 67
33 72
33 73
33 74
33 79
33 82
33 86
33 87
34 35
34 36
34 44
34 46
34 47
34 48
34 50
34 60
34 63
34 66
34 67
34 68
34 72
34 77
34 79
34 83
34 86
35 36
35 41
35 42
35 47
35 48
35 49
35 50
35 54
35 56
35 59
35 60
35 63
35 64
35 73
35 76
35 84
35 85
35 89
36 41
36 47
36 49
36 56
36 61
36 62
36 63
36 67
36 76
36 77
36 78
36 80
36 81
36 82
36 83
36 88
36 89
37 40
37 55
37 61
37 67
37 70
37 71
37 72
37 77
37 81
37 82
37 83
37 84
37 87
38 40
38 42
38 44
38 46
38 49
38 52
38 56
38 58
38 60
38 61
38 62
38 64
38 73
38 74
38 76
38 77
38 79
38 80
38 83
38 84
38 85
39 49
39 64
39 68
39 70
39 74
39 77
39 80
39 83
39 87
39 89
40 44
40 50
40 51
40 52
40 53
40 56
40 59
40 61
40 64
40 70
40 75
40 76
40 77
40 82
40 84
41 48
41 52
41 59
41 69
41 72
41 78
41 85
41 88
42 43
42 45
42 48
42 50
42 58
42 59
42 62
42 69
42 71
42 81
42 84
42 85
43 46
43 50
43 56
43 57
43 59
43 65
43 66
43 70
43 80
43 89
44 45
44 47
44 50
44 52
44 53
44 57
44 59
44 66
44 69
44 75
44 78
44 81
44 88
45 51
45 52
45 56
45 61
45 72
45 73
45 75
45 77
45 81
45 85
45 87
45 88
45 89
46 48
46 52
46 53
46 56
46 57
46 67
46 68
46 71
46 74
46 75
46 78
46 80
46 82
46 83
46 85
46 86
46 88
47 49
47 51
47 52
47 53
47 54
47 55
47 58
47 66
47 68
47 72
47 81
47 83
47 86
47 87
47 89
48 52
48 53
48 57
48 63
48 68
48 71
48 73
48 75
48 76
48 82
48 83
48 88
49 55
49 59
49 60
49 64
49 65
49 66
49 71
49 72
49 75
49 76
49 78
49 81
49 82
49 84
49 86
50 54
50 55
50 56
50 59
50 61
50 62
50 65
50 68
50 75
50 81
50 83
50 84
50 87
50 89
51 54
51 57
51 64
51 66
51 69
51 70
51 71
51 72
51 74
51 75
51 76
51 77
51 80
51 82
51 83
51 84
51 87
51 89
52 54
52 56
52 63
52 67
52 68
52 72
52 74
52 78
52 80
52 84
53 57
53 63
53 64
53 67
53 71
53 74
53 87
54 55
54 56
54 58
54 59
54 70
54 78
54 80
54 81
54 87
54 89
55 57
55 63
55 65
55 72
55 78
55 89
56 58
56 59
56 62
56 63
56 67
56 69
56 74
56 76
56 77
57 58
57 60
57 62
57 63
57 64
57 66
57 72
57 84
57 85
58 70
58 73
58 74
58 77
58 81
58 85
58 86
58 89
59 65
59 70
59 75
59 76
59 77
59 80
59 82
59 84
59 86
59 89
60 67
60 68
60 70
60 74
60 83
60 85
60 89
61 64
61 66
61 67
61 71
61 81
61 82
61 86
61 87
61 88
61 89
62 63
62 66
62 68
62 78
62 79
62 83
62 84
62 86
63 68
63 69
63 71
63 73
63 75
63 77
63 80
63 82
63 84
63 89
64 68
64 70
64 76
64 77
64 79
64 83
64 84
64 85
65 69
65 71
65 72
65 77
65 81
65 84
65 85
65 89
66 67
66 68
66 72
66 74
66 79
66 86
66 89
67 69
67 71
67 73
67 75
67 78
67 80
67 84
67 86
67 89
68 70
68 73
68 75
68 76
68 77
68 78
68 83
69 71
69 72
69 73
69 76
69 77
69 81
69 82
69 83
69 88
70 72
70 76
70 81
71 78
71 79
71 82
71 83
71 84
71 86
72 74
72 79
73 74
73 78
73 80
73 83
73 86
74 76
74 77
74 78
74 86
75 80
75 81
75 84
75 86
76 78
76 81
76 84
76 88
77 82
77 83
77 84
77 85
77 87
78 82
78 85
78 86
78 89
79 81
79 87
79 89
80 84
81 82
81 83
81 86
81 87
81 88
82 83
82 87
82 89
83 86
83 87
83 89
84 85
85 88
66 3 41 15 77 39 10 27 60 87 48 84 65 67 73 46 70 61 76 30 78 40
13 68 74 23 32 24 22 88 71 20 1 83 21 64 5 80 12 9 85 16 43 17
4 7 69 44 31 28 14 82 36 34 42 75 50 72 86 62 19 55 33 79 6 81
38 89 59 18 8 58 45 0 52 51 49 57 54 35 25 11 53 29 26 56 47 37
2 63
